c   #vars: 77   #clauses: 345   #literals: 960
c 
p cnf 77 345
22 36 37 -70 0
20 21 62 63 0
4 5 62 63 0
-2 -3 0
-4 -5 0
-6 -7 0
-8 -9 0
-10 -11 0
-12 -13 0
-14 -15 0
-16 -17 0
-18 -19 0
-20 -21 0
2 3 -4 38 0
-4 27 62 63 0
-23 -24 0
-25 -26 0
32 -53 62 63 0
-28 -29 0
-30 -31 0
4 5 38 -74 0
-33 -34 0
-36 -37 0
41 -55 57 58 0
-39 -40 0
-16 46 47 61 0
-42 -43 0
-44 -45 0
-46 -47 0
2 3 44 45 0
2 3 55 56 0
46 47 53 54 0
13 35 -59 0
-49 -50 0
-51 -52 0
-53 -54 0
-55 -56 0
-57 -58 0
-59 -60 0
-18 23 24 76 0
-62 -63 0
-64 -65 0
-66 -67 0
-68 -69 0
4 5 39 40 0
-70 -71 0
-72 -73 0
-74 -75 0
28 29 66 67 0
18 19 -23 76 0
20 21 53 54 0
16 17 48 -74 0
20 21 68 69 0
22 -30 36 37 0
-1 -31 0
22 31 -70 0
22 -36 70 71 0
-1 -50 0
44 45 53 54 0
22 -30 71 0
-1 -67 0
39 40 51 52 0
44 45 68 69 0
-10 32 62 63 0
-3 -27 0
8 9 55 56 0
-2 -30 0
-3 -31 0
-16 41 57 58 0
-3 -38 0
-2 -44 0
-3 -45 0
-2 -55 0
-3 -56 0
18 19 70 71 0
-2 -64 0
-3 -65 0
2 3 68 69 0
-2 -68 0
-3 -69 0
25 26 66 67 0
10 11 32 -62 0
-5 -27 0
2 3 38 -74 0
16 17 41 -57 0
-5 -38 0
42 43 74 75 0
-4 -39 0
-5 -40 0
10 11 72 73 0
-4 -49 0
-5 -50 0
10 11 59 60 0
-4 -62 0
-5 -63 0
14 15 72 73 0
1 -49 66 67 0
-5 -77 0
-6 -33 0
-7 -34 0
-7 -48 0
-6 -53 0
-7 -54 0
6 7 53 54 0
-6 -64 0
-7 -65 0
-12 35 51 52 0
-8 -36 0
-9 -37 0
-8 -42 0
-9 -43 0
12 13 28 29 0
-20 23 24 77 0
39 40 55 56 0
-8 -49 0
-9 -50 0
44 45 62 63 0
-8 -55 0
-9 -56 0
-8 -64 0
-9 -65 0
-8 -66 0
-9 -67 0
39 40 66 67 0
-2 4 5 38 0
-11 -32 0
14 15 28 29 0
-10 -33 0
-11 -34 0
28 29 72 73 0
-10 -53 0
-11 -54 0
10 11 53 54 0
-10 -59 0
-11 -60 0
25 26 33 34 0
-16 23 24 76 0
-11 -61 0
-10 -72 0
-11 -73 0
10 11 33 34 0
-12 -28 0
-13 -29 0
-13 -35 0
-10 32 53 54 0
-12 -36 0
-13 -37 0
14 15 46 47 0
-12 -42 0
-13 -43 0
25 26 44 45 0
-12 -53 0
-13 -54 0
1 30 31 -49 0
-12 -59 0
-13 -60 0
-12 -70 0
-13 -71 0
18 19 59 60 0
-14 -28 0
-15 -29 0
-6 48 74 75 0
-14 -30 0
-15 -31 0
-4 20 21 77 0
-14 -46 0
-15 -47 0
-14 -57 0
-15 -58 0
30 31 72 73 0
-14 -72 0
-15 -73 0
-10 46 47 61 0
-17 -41 0
-16 48 74 75 0
-17 -48 0
36 37 66 67 0
16 17 -23 76 0
-17 -61 0
8 9 66 67 0
-6 16 17 48 0
-17 -76 0
-18 -36 0
-19 -37 0
8 9 42 43 0
-18 -59 0
-19 -60 0
2 3 64 65 0
-18 -66 0
-19 -67 0
28 29 68 69 0
-18 -70 0
-19 -71 0
23 24 51 52 0
6 7 48 -74 0
-19 -76 0
39 40 74 75 0
-20 -33 0
-21 -34 0
-20 -53 0
-21 -54 0
32 53 54 -62 0
-20 -62 0
-21 -63 0
8 9 64 65 0
-20 -68 0
-21 -69 0
14 15 57 58 0
1 -30 66 67 0
-21 -77 0
35 -51 59 60 0
30 31 70 71 0
-12 35 60 0
49 50 68 69 0
-2 27 62 63 0
-22 -31 0
-16 18 19 76 0
4 5 27 -62 0
-22 -37 0
8 9 49 50 0
-2 4 5 27 0
-22 -71 0
35 51 52 -59 0
-23 -46 0
-24 -47 0
4 5 -20 77 0
-23 -51 0
-24 -52 0
6 7 -16 48 0
-24 -76 0
12 13 42 43 0
-24 -77 0
-25 -33 0
-26 -34 0
4 5 49 50 0
-25 -44 0
-26 -45 0
-25 -46 0
-26 -47 0
30 31 55 56 0
42 43 64 65 0
-25 -51 0
-26 -52 0
4 5 -23 77 0
-25 -57 0
-26 -58 0
-25 -66 0
-26 -67 0
28 29 57 58 0
10 11 32 -53 0
-27 -63 0
25 26 51 52 0
-28 -57 0
-29 -58 0
33 34 70 71 0
-28 -66 0
-29 -67 0
20 21 33 34 0
-28 -68 0
-29 -69 0
14 15 30 31 0
-28 -72 0
-29 -73 0
36 37 62 63 0
-30 -55 0
-31 -56 0
41 55 56 -57 0
-30 -70 0
-31 -71 0
12 13 70 71 0
-30 -72 0
-31 -73 0
-4 38 74 75 0
-32 -54 0
8 9 36 37 0
-2 38 74 75 0
-32 -63 0
-33 -70 0
-34 -71 0
2 3 27 -62 0
12 13 35 -51 0
1 49 50 -66 0
10 11 -46 61 0
-35 -52 0
6 7 33 34 0
-35 -60 0
-36 -62 0
-37 -63 0
18 19 66 67 0
-36 -66 0
-37 -67 0
2 3 -4 27 0
16 17 41 -55 0
-38 -75 0
1 30 31 -66 0
-39 -51 0
-40 -52 0
25 26 57 58 0
-39 -55 0
-40 -56 0
25 26 46 47 0
-39 -66 0
-40 -67 0
-39 -74 0
-40 -75 0
22 30 31 -36 0
16 17 -46 61 0
-41 -56 0
-16 41 55 56 0
-10 16 17 61 0
-41 -58 0
23 24 46 47 0
-42 -64 0
-43 -65 0
20 21 -23 77 0
-42 -74 0
-43 -75 0
18 19 36 37 0
12 13 53 54 0
1 -30 49 50 0
49 50 64 65 0
-44 -53 0
-45 -54 0
49 50 51 52 0
-44 -62 0
-45 -63 0
-44 -68 0
-45 -69 0
-46 -53 0
-47 -54 0
16 17 -18 76 0
-47 -61 0
12 13 59 60 0
-48 -75 0
2 3 30 31 0
12 13 36 37 0
-4 23 24 77 0
6 7 64 65 0
-49 -51 0
-50 -52 0
-49 -64 0
-50 -65 0
10 11 -16 61 0
-49 -68 0
-50 -69 0
